0 0 0 0
0 1 0 0
0 2 0 0
0 3 0 0
0 4 0 3
0 5 0 5
0 6 0 7
0 7 0 6
0 8 0 12
0 9 1 5
0 10 0 15
0 11 0 15
0 12 0 18
0 13 0 15
0 14 1 13
0 15 2 18
0 16 2 6
0 17 0 22
0 18 0 12
0 19 1 15
0 20 0 16
0 21 1 23
0 22 0 18
0 23 0 20
0 24 0 13
0 25 0 23
0 26 0 22
0 27 1 25
0 28 0 28
0 29 2 19
0 30 0 24
0 31 0 31
